(set-logic QF_UF)
(declare-fun A0 () Bool)
(declare-fun A1 () Bool)
(declare-fun A2 () Bool)
(declare-fun A3 () Bool)
(declare-fun A4 () Bool)
(declare-fun A5 () Bool)
(declare-fun A6 () Bool)
(declare-fun A7 () Bool)
(declare-fun A8 () Bool)
(declare-fun A9 () Bool)
(declare-fun A10 () Bool)
(declare-fun A12 () Bool)
(declare-fun A13 () Bool)
(declare-fun A14 () Bool)
(declare-fun A15 () Bool)
(declare-fun A17 () Bool)
(declare-fun A18 () Bool)
(declare-fun A19 () Bool)
(declare-fun A20 () Bool)
(declare-fun A21 () Bool)
(declare-fun A22 () Bool)
(declare-fun A23 () Bool)
(declare-fun A24 () Bool)
(assert (let ((.def_0 (or A0 A21))) (let ((.def_1 (and A23 A23))) (let ((.def_2 (and .def_1 .def_0))) (let ((.def_3 (not A15))) (let ((.def_4 (and A13 .def_3))) (let ((.def_5 (not .def_4))) (let ((.def_6 (not A18))) (let ((.def_7 (not A12))) (let ((.def_8 (or .def_7 .def_6))) (let ((.def_9 (or .def_8 .def_5))) (let ((.def_10 (not .def_9))) (let ((.def_11 (and .def_10 .def_2))) (let ((.def_12 (not .def_11))) (let ((.def_13 (not A4))) (let ((.def_14 (or .def_13 A5))) (let ((.def_15 (not .def_14))) (let ((.def_16 (not A0))) (let ((.def_17 (not A1))) (let ((.def_18 (= .def_17 .def_16))) (let ((.def_19 (or .def_18 .def_15))) (let ((.def_20 (not A13))) (let ((.def_21 (and .def_20 .def_16))) (let ((.def_22 (not A17))) (let ((.def_23 (and .def_22 .def_17))) (let ((.def_24 (and .def_23 .def_21))) (let ((.def_25 (and .def_24 .def_19))) (let ((.def_26 (and .def_25 .def_12))) (let ((.def_27 (not A2))) (let ((.def_28 (or A12 .def_27))) (let ((.def_29 (or A19 A24))) (let ((.def_30 (not .def_29))) (let ((.def_31 (or .def_30 .def_28))) (let ((.def_32 (not .def_31))) (let ((.def_33 (not A19))) (let ((.def_34 (and .def_33 .def_27))) (let ((.def_35 (not .def_34))) (let ((.def_36 (not A7))) (let ((.def_37 (or .def_36 A8))) (let ((.def_38 (not .def_37))) (let ((.def_39 (and .def_38 .def_35))) (let ((.def_40 (and .def_39 .def_32))) (let ((.def_41 (not .def_40))) (let ((.def_42 (or A6 A12))) (let ((.def_43 (not .def_42))) (let ((.def_44 (not A3))) (let ((.def_45 (not A8))) (let ((.def_46 (and .def_45 .def_44))) (let ((.def_47 (or .def_46 .def_43))) (let ((.def_48 (not .def_47))) (let ((.def_49 (and A12 A23))) (let ((.def_50 (not .def_49))) (let ((.def_51 (and .def_36 A1))) (let ((.def_52 (or .def_51 .def_50))) (let ((.def_53 (not .def_52))) (let ((.def_54 (and .def_53 .def_48))) (let ((.def_55 (and .def_54 .def_41))) (let ((.def_56 (and .def_55 .def_26))) (let ((.def_57 (not .def_56))) (let ((.def_58 (or .def_27 .def_20))) (let ((.def_59 (and .def_22 A4))) (let ((.def_60 (not .def_59))) (let ((.def_61 (or .def_60 .def_58))) (let ((.def_62 (or A17 A23))) (let ((.def_63 (not A22))) (let ((.def_64 (and .def_63 A14))) (let ((.def_65 (and .def_64 .def_62))) (let ((.def_66 (and .def_65 .def_61))) (let ((.def_67 (not .def_66))) (let ((.def_68 (not A9))) (let ((.def_69 (or A3 .def_68))) (let ((.def_70 (not .def_69))) (let ((.def_71 (and .def_45 A18))) (let ((.def_72 (not .def_71))) (let ((.def_73 (and .def_72 .def_70))) (let ((.def_74 (not A23))) (let ((.def_75 (and .def_74 .def_16))) (let ((.def_76 (not .def_75))) (let ((.def_77 (not A10))) (let ((.def_78 (and .def_77 A18))) (let ((.def_79 (and .def_78 .def_76))) (let ((.def_80 (and .def_79 .def_73))) (let ((.def_81 (or .def_80 .def_67))) (let ((.def_82 (not A21))) (let ((.def_83 (not A20))) (let ((.def_84 (or .def_83 .def_82))) (let ((.def_85 (not .def_84))) (let ((.def_86 (not A5))) (let ((.def_87 (or A0 .def_86))) (let ((.def_88 (and .def_87 .def_85))) (let ((.def_89 (not .def_88))) (let ((.def_90 (and .def_82 .def_27))) (let ((.def_91 (= A8 .def_63))) (let ((.def_92 (not .def_91))) (let ((.def_93 (and .def_92 .def_90))) (let ((.def_94 (not .def_93))) (let ((.def_95 (or .def_94 .def_89))) (let ((.def_96 (= .def_86 A4))) (let ((.def_97 (or A3 .def_7))) (let ((.def_98 (and .def_97 .def_96))) (let ((.def_99 (and A3 .def_33))) (let ((.def_100 (not .def_99))) (let ((.def_101 (or .def_83 A20))) (let ((.def_102 (not .def_101))) (let ((.def_103 (or .def_102 .def_100))) (let ((.def_104 (and .def_103 .def_98))) (let ((.def_105 (or .def_104 .def_95))) (let ((.def_106 (and .def_105 .def_81))) (let ((.def_107 (or .def_106 .def_57))) (let ((.def_108 (not .def_107))) .def_108))))))))))))))))))))))))))))))))))))))))))))))))))))))))))))))))))))))))))))))))))))))))))))))))))))))))))))))
(check-sat)
